\* 8_Queens_Problem *\
Minimize
Arbitrary_Objective_Function: __dummy
Subject To
_C1: Choice_Q_1_1 + Choice___1_1 = 1
_C10: Choice_Q_2_2 + Choice___2_2 = 1
_C11: Choice_Q_2_3 + Choice___2_3 = 1
_C12: Choice_Q_2_4 + Choice___2_4 = 1
_C13: Choice_Q_2_5 + Choice___2_5 = 1
_C14: Choice_Q_2_6 + Choice___2_6 = 1
_C15: Choice_Q_2_7 + Choice___2_7 = 1
_C16: Choice_Q_2_8 + Choice___2_8 = 1
_C17: Choice_Q_3_1 + Choice___3_1 = 1
_C18: Choice_Q_3_2 + Choice___3_2 = 1
_C19: Choice_Q_3_3 + Choice___3_3 = 1
_C2: Choice_Q_1_2 + Choice___1_2 = 1
_C20: Choice_Q_3_4 + Choice___3_4 = 1
_C21: Choice_Q_3_5 + Choice___3_5 = 1
_C22: Choice_Q_3_6 + Choice___3_6 = 1
_C23: Choice_Q_3_7 + Choice___3_7 = 1
_C24: Choice_Q_3_8 + Choice___3_8 = 1
_C25: Choice_Q_4_1 + Choice___4_1 = 1
_C26: Choice_Q_4_2 + Choice___4_2 = 1
_C27: Choice_Q_4_3 + Choice___4_3 = 1
_C28: Choice_Q_4_4 + Choice___4_4 = 1
_C29: Choice_Q_4_5 + Choice___4_5 = 1
_C3: Choice_Q_1_3 + Choice___1_3 = 1
_C30: Choice_Q_4_6 + Choice___4_6 = 1
_C31: Choice_Q_4_7 + Choice___4_7 = 1
_C32: Choice_Q_4_8 + Choice___4_8 = 1
_C33: Choice_Q_5_1 + Choice___5_1 = 1
_C34: Choice_Q_5_2 + Choice___5_2 = 1
_C35: Choice_Q_5_3 + Choice___5_3 = 1
_C36: Choice_Q_5_4 + Choice___5_4 = 1
_C37: Choice_Q_5_5 + Choice___5_5 = 1
_C38: Choice_Q_5_6 + Choice___5_6 = 1
_C39: Choice_Q_5_7 + Choice___5_7 = 1
_C4: Choice_Q_1_4 + Choice___1_4 = 1
_C40: Choice_Q_5_8 + Choice___5_8 = 1
_C41: Choice_Q_6_1 + Choice___6_1 = 1
_C42: Choice_Q_6_2 + Choice___6_2 = 1
_C43: Choice_Q_6_3 + Choice___6_3 = 1
_C44: Choice_Q_6_4 + Choice___6_4 = 1
_C45: Choice_Q_6_5 + Choice___6_5 = 1
_C46: Choice_Q_6_6 + Choice___6_6 = 1
_C47: Choice_Q_6_7 + Choice___6_7 = 1
_C48: Choice_Q_6_8 + Choice___6_8 = 1
_C49: Choice_Q_7_1 + Choice___7_1 = 1
_C5: Choice_Q_1_5 + Choice___1_5 = 1
_C50: Choice_Q_7_2 + Choice___7_2 = 1
_C51: Choice_Q_7_3 + Choice___7_3 = 1
_C52: Choice_Q_7_4 + Choice___7_4 = 1
_C53: Choice_Q_7_5 + Choice___7_5 = 1
_C54: Choice_Q_7_6 + Choice___7_6 = 1
_C55: Choice_Q_7_7 + Choice___7_7 = 1
_C56: Choice_Q_7_8 + Choice___7_8 = 1
_C57: Choice_Q_8_1 + Choice___8_1 = 1
_C58: Choice_Q_8_2 + Choice___8_2 = 1
_C59: Choice_Q_8_3 + Choice___8_3 = 1
_C6: Choice_Q_1_6 + Choice___1_6 = 1
_C60: Choice_Q_8_4 + Choice___8_4 = 1
_C61: Choice_Q_8_5 + Choice___8_5 = 1
_C62: Choice_Q_8_6 + Choice___8_6 = 1
_C63: Choice_Q_8_7 + Choice___8_7 = 1
_C64: Choice_Q_8_8 + Choice___8_8 = 1
_C65: Choice_Q_1_1 + Choice_Q_1_2 + Choice_Q_1_3 + Choice_Q_1_4 + Choice_Q_1_5
 + Choice_Q_1_6 + Choice_Q_1_7 + Choice_Q_1_8 = 1
_C66: Choice_Q_2_1 + Choice_Q_2_2 + Choice_Q_2_3 + Choice_Q_2_4 + Choice_Q_2_5
 + Choice_Q_2_6 + Choice_Q_2_7 + Choice_Q_2_8 = 1
_C67: Choice_Q_3_1 + Choice_Q_3_2 + Choice_Q_3_3 + Choice_Q_3_4 + Choice_Q_3_5
 + Choice_Q_3_6 + Choice_Q_3_7 + Choice_Q_3_8 = 1
_C68: Choice_Q_4_1 + Choice_Q_4_2 + Choice_Q_4_3 + Choice_Q_4_4 + Choice_Q_4_5
 + Choice_Q_4_6 + Choice_Q_4_7 + Choice_Q_4_8 = 1
_C69: Choice_Q_5_1 + Choice_Q_5_2 + Choice_Q_5_3 + Choice_Q_5_4 + Choice_Q_5_5
 + Choice_Q_5_6 + Choice_Q_5_7 + Choice_Q_5_8 = 1
_C7: Choice_Q_1_7 + Choice___1_7 = 1
_C70: Choice_Q_6_1 + Choice_Q_6_2 + Choice_Q_6_3 + Choice_Q_6_4 + Choice_Q_6_5
 + Choice_Q_6_6 + Choice_Q_6_7 + Choice_Q_6_8 = 1
_C71: Choice_Q_7_1 + Choice_Q_7_2 + Choice_Q_7_3 + Choice_Q_7_4 + Choice_Q_7_5
 + Choice_Q_7_6 + Choice_Q_7_7 + Choice_Q_7_8 = 1
_C72: Choice_Q_8_1 + Choice_Q_8_2 + Choice_Q_8_3 + Choice_Q_8_4 + Choice_Q_8_5
 + Choice_Q_8_6 + Choice_Q_8_7 + Choice_Q_8_8 = 1
_C73: Choice_Q_1_1 + Choice_Q_2_1 + Choice_Q_3_1 + Choice_Q_4_1 + Choice_Q_5_1
 + Choice_Q_6_1 + Choice_Q_7_1 + Choice_Q_8_1 = 1
_C74: Choice_Q_1_2 + Choice_Q_2_2 + Choice_Q_3_2 + Choice_Q_4_2 + Choice_Q_5_2
 + Choice_Q_6_2 + Choice_Q_7_2 + Choice_Q_8_2 = 1
_C75: Choice_Q_1_3 + Choice_Q_2_3 + Choice_Q_3_3 + Choice_Q_4_3 + Choice_Q_5_3
 + Choice_Q_6_3 + Choice_Q_7_3 + Choice_Q_8_3 = 1
_C76: Choice_Q_1_4 + Choice_Q_2_4 + Choice_Q_3_4 + Choice_Q_4_4 + Choice_Q_5_4
 + Choice_Q_6_4 + Choice_Q_7_4 + Choice_Q_8_4 = 1
_C77: Choice_Q_1_5 + Choice_Q_2_5 + Choice_Q_3_5 + Choice_Q_4_5 + Choice_Q_5_5
 + Choice_Q_6_5 + Choice_Q_7_5 + Choice_Q_8_5 = 1
_C78: Choice_Q_1_6 + Choice_Q_2_6 + Choice_Q_3_6 + Choice_Q_4_6 + Choice_Q_5_6
 + Choice_Q_6_6 + Choice_Q_7_6 + Choice_Q_8_6 = 1
_C79: Choice_Q_1_7 + Choice_Q_2_7 + Choice_Q_3_7 + Choice_Q_4_7 + Choice_Q_5_7
 + Choice_Q_6_7 + Choice_Q_7_7 + Choice_Q_8_7 = 1
_C8: Choice_Q_1_8 + Choice___1_8 = 1
_C80: Choice_Q_1_8 + Choice_Q_2_8 + Choice_Q_3_8 + Choice_Q_4_8 + Choice_Q_5_8
 + Choice_Q_6_8 + Choice_Q_7_8 + Choice_Q_8_8 = 1
_C9: Choice_Q_2_1 + Choice___2_1 = 1
Bounds
__dummy = 0
Binaries
Choice_Q_1_1
Choice_Q_1_2
Choice_Q_1_3
Choice_Q_1_4
Choice_Q_1_5
Choice_Q_1_6
Choice_Q_1_7
Choice_Q_1_8
Choice_Q_2_1
Choice_Q_2_2
Choice_Q_2_3
Choice_Q_2_4
Choice_Q_2_5
Choice_Q_2_6
Choice_Q_2_7
Choice_Q_2_8
Choice_Q_3_1
Choice_Q_3_2
Choice_Q_3_3
Choice_Q_3_4
Choice_Q_3_5
Choice_Q_3_6
Choice_Q_3_7
Choice_Q_3_8
Choice_Q_4_1
Choice_Q_4_2
Choice_Q_4_3
Choice_Q_4_4
Choice_Q_4_5
Choice_Q_4_6
Choice_Q_4_7
Choice_Q_4_8
Choice_Q_5_1
Choice_Q_5_2
Choice_Q_5_3
Choice_Q_5_4
Choice_Q_5_5
Choice_Q_5_6
Choice_Q_5_7
Choice_Q_5_8
Choice_Q_6_1
Choice_Q_6_2
Choice_Q_6_3
Choice_Q_6_4
Choice_Q_6_5
Choice_Q_6_6
Choice_Q_6_7
Choice_Q_6_8
Choice_Q_7_1
Choice_Q_7_2
Choice_Q_7_3
Choice_Q_7_4
Choice_Q_7_5
Choice_Q_7_6
Choice_Q_7_7
Choice_Q_7_8
Choice_Q_8_1
Choice_Q_8_2
Choice_Q_8_3
Choice_Q_8_4
Choice_Q_8_5
Choice_Q_8_6
Choice_Q_8_7
Choice_Q_8_8
Choice___1_1
Choice___1_2
Choice___1_3
Choice___1_4
Choice___1_5
Choice___1_6
Choice___1_7
Choice___1_8
Choice___2_1
Choice___2_2
Choice___2_3
Choice___2_4
Choice___2_5
Choice___2_6
Choice___2_7
Choice___2_8
Choice___3_1
Choice___3_2
Choice___3_3
Choice___3_4
Choice___3_5
Choice___3_6
Choice___3_7
Choice___3_8
Choice___4_1
Choice___4_2
Choice___4_3
Choice___4_4
Choice___4_5
Choice___4_6
Choice___4_7
Choice___4_8
Choice___5_1
Choice___5_2
Choice___5_3
Choice___5_4
Choice___5_5
Choice___5_6
Choice___5_7
Choice___5_8
Choice___6_1
Choice___6_2
Choice___6_3
Choice___6_4
Choice___6_5
Choice___6_6
Choice___6_7
Choice___6_8
Choice___7_1
Choice___7_2
Choice___7_3
Choice___7_4
Choice___7_5
Choice___7_6
Choice___7_7
Choice___7_8
Choice___8_1
Choice___8_2
Choice___8_3
Choice___8_4
Choice___8_5
Choice___8_6
Choice___8_7
Choice___8_8
End
